
  12    4
  10   10   10   10

   0   0   0   0   0   6 2 3 4 5 7 8 
   8  10  10  10  10   2 10 6 
   5  10  10  10  10   2 10 6 
   6  10  10  10  10   2 10 9 
   4  10  10  10  10   2 10 9 
   7  10  10  10  10   1 9 
   8  10  10  10  10   1 10 
   5  10  10  10  10   1 9 
   6  10  10  10  10   1 11 
   4  10  10  10  10   1 11 
   3  10  10  10  10   1 12
   0   0   0   0   0   0 
